;; ===================== PROJECTED CANON (QE) =====================
;; Each clause below is entailed by Proj = ∃W.F over the canonical vocabulary.
;; Units appear first for clarity; OR-clauses (SAT-filtered) follow.
;; ==================================================================

;; Unit Bool constraints (entailed)
(assert patient_is_taking_antidepressant_inthehistory)
(assert patient_has_undergone_manual_pelvic_examination_inthepast12months_outcome_is_normal)
(assert patient_has_undergone_thyroid_stimulating_hormone_measurement_now_outcome_is_normal)
(assert patient_has_undergone_serum_total_hcg_measurement_now_outcome_is_negative)
(assert patient_has_undergone_urine_chorionic_gonadotrophin_measurement_now_outcome_is_negative)
(assert patient_has_finding_of_potassium_level_finding_now)
(assert patient_has_finding_of_general_well_being_finding_now)
